%chk=t131-mol
#P HF/GEN 5D 7F
# SP

 SP+PCM(benzene)

0 1
C 0.00000000 0.00000000 0.00000000
H -0.36330000 -0.51380000 0.89000000
H 1.09000000 0.00000000 0.00000000
H -0.36330000 1.02770000 0.00000000
H -0.36330000 -0.51380000 -0.89000000

1      0
S   7   1.000  
 4.2330000000E+03       1.2200E-03
 6.349000000E+02       9.3420E-03
 1.461000000E+02       4.54520E-02
 4.25000000E+01       1.546570E-01
 1.41900000E+01       3.588660E-01
 5.1480000E+00       4.386320E-01
 1.9670000E+00       1.459180E-01
S   2   1.000  
 5.1480000E+00      -1.683670E-01
 4.962000E-01       1.0600910E+00
S   1   1.000  
 1.533000E-01       1.0000000E+00
P   4   1.000  
 1.81600000E+01       1.85390E-02
 3.9860000E+00       1.154360E-01
 1.1430000E+00       3.861880E-01
 3.594000E-01       6.401140E-01
P   1   1.000  
 1.146000E-01       1.0000000E+00
P   1   1.000  
 3.11000E-02       1.0000000E+00
D   1   1.000  
 5.870000E-01       1.0000000E+00
****
2      0
STO-3G
****
3      0
STO-3G
****
4      0
STO-3G
****
5      0
STO-3G
****


--Link1--
%chk=t131-mol
#P OLYP/CHKBASIS 5D 7F
# SP
# GEOM=CHECK
# GUESS=READ
# SCF=(VSHIFT=600,NOSYM,CONVER=5)

No comment

0 1


--Link1--
%chk=t131-mol
#P OLYP/GEN 5D 7F
# SP
# GEOM=CHECK
# GUESS=READ
# SCF=(VSHIFT=600,NOSYM,CONVER=5)

No comment

0 1

H      0
S   3   1.000  
 1.92384000E+01       3.28280E-02
 2.8987000E+00       2.312040E-01
 6.535000E-01       8.172260E-01
S   1   1.000  
 1.776000E-01       1.0000000E+00
S   1   1.000  
 4.98000E-02       1.0000000E+00
P   1   1.000  
 3.560000E-01       1.0000000E+00
****
C      0
S   6   1.000  
 3.047524880E+03       1.834737132E-03
 4.573695180E+02       1.403732281E-02
 1.039486850E+02       6.884262226E-02
 2.921015530E+01       2.321844432E-01
 9.286662960E+00       4.679413484E-01
 3.163926960E+00       3.623119853E-01
SP  3   1.000  
 7.868272350E+00      -1.193324198E-01  6.899906659E-02
 1.881288540E+00      -1.608541517E-01  3.164239610E-01
 5.442492580E-01       1.143456438E+00  7.443082909E-01
SP  1   1.000  
 1.687144782E-01       1.000000000E+00  1.000000000E+00
****


--Link1--
%chk=t131-mol
#P OLYP/GEN 5D 7F
# SP
# GEOM=CHECK
# GUESS=READ
# SCF=(VSHIFT=600,NOSYM,CONVER=5)

No comment

0 1

1      0
S   10  1.000  
 8.236000E+03       5.310000E-04
 1.235000E+03       4.108000E-03
 2.808000E+02       2.108700E-02
 7.927000E+01       8.185300E-02
 2.559000E+01       2.348170E-01
 8.997000E+00       4.344010E-01
 3.319000E+00       3.461290E-01
 9.059000E-01       3.937800E-02
 3.643000E-01      -8.983000E-03
 1.285000E-01       2.385000E-03
S   10  1.000  
 8.236000E+03      -1.130000E-04
 1.235000E+03      -8.780000E-04
 2.808000E+02      -4.540000E-03
 7.927000E+01      -1.813300E-02
 2.559000E+01      -5.576000E-02
 8.997000E+00      -1.268950E-01
 3.319000E+00      -1.703520E-01
 9.059000E-01       1.403820E-01
 3.643000E-01       5.986840E-01
 1.285000E-01       3.953890E-01
S   1   1.000  
 9.059000E-01       1.000000E+00
S   1   1.000  
 1.285000E-01       1.000000E+00
S   1   1.000  
 4.40200E-02       1.0000000E+00
P   5   1.000  
 1.871000E+01       1.403100E-02
 4.133000E+00       8.686600E-02
 1.200000E+00       2.902160E-01
 3.827000E-01       5.010080E-01
 1.209000E-01       3.434060E-01
P   1   1.000  
 3.827000E-01       1.000000E+00
P   1   1.000  
 1.209000E-01       1.000000E+00
P   1   1.000  
 3.56900E-02       1.0000000E+00
D   1   1.000  
 1.097000E+00       1.000000E+00
D   1   1.000  
 3.180000E-01       1.000000E+00
D   1   1.000  
 1.000000E-01       1.0000000E+00
F   1   1.000  
 7.610000E-01       1.0000000E+00
F   1   1.000  
 2.680000E-01       1.0000000E+00
****
2      0
S   3   1.000  
 1.92384000E+01       3.28280E-02
 2.8987000E+00       2.312040E-01
 6.535000E-01       8.172260E-01
S   1   1.000  
 1.776000E-01       1.0000000E+00
S   1   1.000  
 4.98000E-02       1.0000000E+00
P   1   1.000  
 3.560000E-01       1.0000000E+00
****
3      0
S   3   1.000  
 1.92384000E+01       3.28280E-02
 2.8987000E+00       2.312040E-01
 6.535000E-01       8.172260E-01
S   1   1.000  
 1.776000E-01       1.0000000E+00
S   1   1.000  
 4.98000E-02       1.0000000E+00
P   1   1.000  
 3.560000E-01       1.0000000E+00
****
4      0
S   3   1.000  
 1.92384000E+01       3.28280E-02
 2.8987000E+00       2.312040E-01
 6.535000E-01       8.172260E-01
S   1   1.000  
 1.776000E-01       1.0000000E+00
S   1   1.000  
 4.98000E-02       1.0000000E+00
P   1   1.000  
 3.560000E-01       1.0000000E+00
****
5      0
S   3   1.000  
 1.92384000E+01       3.28280E-02
 2.8987000E+00       2.312040E-01
 6.535000E-01       8.172260E-01
S   1   1.000  
 1.776000E-01       1.0000000E+00
S   1   1.000  
 4.98000E-02       1.0000000E+00
P   1   1.000  
 3.560000E-01       1.0000000E+00
****


